
  12    4
  10   10   10   10

   0   0   0   0   0   5 2 3 4 5 8 
   6  10  10  10  10   2 10 6 
   6  10  10  10  10   2 7 6 
   7  10  10  10  10   2 10 9 
   1  10  10  10  10   1 6 
   4  10  10  10  10   1 9 
   7  10  10  10  10   1 9 
   4  10  10  10  10   1 9 
   4  10  10  10  10   1 11 
   1  10  10  10  10   1 11 
   2  10  10  10  10   1 12
   0   0   0   0   0   0 
